NAME : LPS-n12-m171
COMMENT : (Lartu-Peter-Santi Plot, instance 3771 out of 39200. 12 customers.)
TYPE : CVRP
DIMENSION : 12
EDGE_WEIGHT_TYPE : EUC_2D
CAPACITY : 132
NODE_COORD_SECTION
 1 87 61
 2 52 61
 3 65 78
 4 28 5
 5 38 87
 6 94 68
 7 59 92
 8 3 37
 9 88 12
 10 72 56
 11 93 4
 12 13 75
DEMAND_SECTION
1 0
2 67
3 73
4 80
5 91
6 108
7 15
8 52
9 128
10 64
11 58
12 17
DEPOT_SECTION
 1
 -1
EOF
